db/data/604617152285316034133617771748720732.z3.out
sat
-------------------
328.650384682
